SCIP Status        : solving was interrupted [time limit reached]
Total Time         :    3600.01
  solving          :    3600.01
  presolving       :       0.23 (included in solving)
  reading          :       0.00
  copying          :       0.76 (38 #copies) (minimal 0.00, maximal 0.05, average 0.02)
Original Problem   :
  Problem name     : bbbenchmark/g05_60.7.cut
  Variables        : 61 (60 binary, 0 integer, 0 implicit integer, 1 continuous)
  Constraints      : 1 initial, 1 maximal
  Objective        : minimize, 1 non-zeros (abs.min = 1, abs.max = 1)
Presolved Problem  :
  Problem name     : t_bbbenchmark/g05_60.7.cut
  Variables        : 946 (60 binary, 0 integer, 885 implicit integer, 1 continuous)
  Constraints      : 886 initial, 7826 maximal
  Objective        : minimize, 1 non-zeros (abs.min = 1, abs.max = 1)
  Nonzeros         : 3601 constraint, 122 clique table
Presolvers         :   ExecTime  SetupTime  Calls  FixedVars   AggrVars   ChgTypes  ChgBounds   AddHoles    DelCons    AddCons   ChgSides   ChgCoefs
  boundshift       :       0.00       0.00      0          0          0          0          0          0          0          0          0          0
  convertinttobin  :       0.00       0.00      0          0          0          0          0          0          0          0          0          0
  domcol           :       0.00       0.00      1          0          0          0          0          0          0          0          0          0
  dualagg          :       0.00       0.00      0          0          0          0          0          0          0          0          0          0
  dualcomp         :       0.00       0.00      1          0          0          0          0          0          0          0          0          0
  dualinfer        :       0.00       0.00      0          0          0          0          0          0          0          0          0          0
  dualsparsify     :       0.00       0.00      1          0          0          0          0          0          0          0          0          0
  gateextraction   :       0.00       0.00      0          0          0          0          0          0          0          0          0          0
  implics          :       0.00       0.00      2          0          0          0          0          0          0          0          0          0
  inttobinary      :       0.00       0.00      0          0          0          0          0          0          0          0          0          0
  qpkktref         :       0.00       0.00      0          0          0          0          0          0          0          0          0          0
  redvub           :       0.00       0.00      0          0          0          0          0          0          0          0          0          0
  sparsify         :       0.00       0.00      1          0          0          0          0          0          0          0          0          0
  stuffing         :       0.00       0.00      0          0          0          0          0          0          0          0          0          0
  trivial          :       0.00       0.00      4          0          0          0          0          0          0          0          0          0
  tworowbnd        :       0.00       0.00      0          0          0          0          0          0          0          0          0          0
  dualfix          :       0.00       0.00      4          0          0          0          0          0          0          0          0          0
  genvbounds       :       0.00       0.00      0          0          0          0          0          0          0          0          0          0
  probing          :       0.12       0.00      1          0          0          0          0          0          0          0          0          0
  pseudoobj        :       0.00       0.00      1          0          0          0          1          0          0          0          0          0
  symmetry         :       0.00       0.00      0          0          0          0          0          0          0          0          0          0
  vbounds          :       0.00       0.00      1          0          0          0          0          0          0          0          0          0
  and              :       0.00       0.01      2          0          0          0          0          0          0          0          0          0
  linear           :       0.00       0.00      2          0          0          0          0          0          0          0          0          0
  logicor          :       0.00       0.00      0          0          0          0          0          0          0          0          0          0
  nonlinear        :       0.11       0.00      5          0          0          0          1          0          0        885          0          0
  benders          :       0.00       0.00      0          0          0          0          0          0          0          0          0          0
  components       :       0.00       0.00      1          0          0          0          0          0          0          0          0          0
  root node        :          -          -      -          0          -          -         51          -          -          -          -          -
Constraints        :     Number  MaxNumber  #Separate #Propagate    #EnfoLP    #EnfoRelax  #EnfoPS    #Check   #ResProp    Cutoffs    DomReds       Cuts    Applied      Conss   Children
  benderslp        :          0          0          0          0      67858          0          0       4536          0          0          0          0          0          0          0
  integral         :          0          0          0          0      67858          0          0       4536          0          0      11644          0          0       5150     129462
  and              :        885        885      75762     432831          5          0          0         35      96014         42    2437746       3746       2898          0          0
  linear           :          1          1        129     432789          5          0          0         33          0          0          0          0          0          0          0
  logicor          :          0+      6940          0     117873          0          0          0          0       1537        659        201          0          0          0          0
  benders          :          0          0          0          0          5          0          0         36          0          0          0          0          0          0          0
  countsols        :          0          0          0          0          5          0          0         36          0          0          0          0          0          0          0
  components       :          0          0          0          0          0          0          0          0          0          0          0          0          0          0          0
Constraint Timings :  TotalTime  SetupTime   Separate  Propagate     EnfoLP     EnfoPS     EnfoRelax   Check    ResProp    SB-Prop
  benderslp        :       0.09       0.00       0.00       0.00       0.09       0.00       0.00       0.00       0.00       0.00
  integral         :      65.74       0.00       0.00       0.00      65.73       0.00       0.00       0.01       0.00       0.00
  and              :      42.35       0.01      24.59      17.03       0.00       0.00       0.00       0.01       0.10       0.61
  linear           :       0.41       0.00       0.00       0.39       0.00       0.00       0.00       0.00       0.00       0.02
  logicor          :      15.64       0.00       0.00      15.53       0.00       0.00       0.00       0.00       0.01       0.10
  benders          :       0.00       0.00       0.00       0.00       0.00       0.00       0.00       0.00       0.00       0.00
  countsols        :       0.00       0.00       0.00       0.00       0.00       0.00       0.00       0.00       0.00       0.00
  components       :       0.11       0.00       0.00       0.11       0.00       0.00       0.00       0.00       0.00       0.00
Propagators        : #Propagate   #ResProp    Cutoffs    DomReds
  dualfix          :          4          0          0          0
  genvbounds       :          0          0          0          0
  nlobbt           :          0          0          0          0
  obbt             :          0          0          0          0
  probing          :          0          0          0          0
  pseudoobj        :     361610          0          0         52
  redcost          :     167797          0          0     466470
  rootredcost      :         18          0          0          0
  symmetry         :          0          0          0          0
  vbounds          :      36192          0          0          0
Propagator Timings :  TotalTime  SetupTime   Presolve  Propagate    ResProp    SB-Prop
  dualfix          :       0.00       0.00       0.00       0.00       0.00       0.00
  genvbounds       :       0.34       0.00       0.00       0.32       0.00       0.02
  nlobbt           :       0.00       0.00       0.00       0.00       0.00       0.00
  obbt             :       0.00       0.00       0.00       0.00       0.00       0.00
  probing          :       0.12       0.00       0.12       0.00       0.00       0.00
  pseudoobj        :       0.38       0.00       0.00       0.37       0.00       0.01
  redcost          :       6.00       0.00       0.00       5.99       0.00       0.01
  rootredcost      :       0.38       0.00       0.00       0.37       0.00       0.01
  symmetry         :       0.18       0.00       0.00       0.18       0.00       0.00
  vbounds          :       0.37       0.00       0.00       0.37       0.00       0.00
Conflict Analysis  :       Time      Calls    Success    DomReds  Conflicts   Literals    Reconvs ReconvLits   Dualrays   Nonzeros   LP Iters   (pool size: [10000,10000])
  propagation      :       0.02        701        405          -        468       24.2          0        0.0          -          -          -
  infeasible LP    :       0.00          0          0          -          0        0.0          0        0.0          0        0.0          0
  bound exceed. LP :      14.60      10314       7563          -      44080       30.5         11       20.3          0        0.0      53321
  strong branching :       0.00          0          0          -          0        0.0          0        0.0          -          -          0
  pseudo solution  :       0.00          0          0          -          0        0.0          0        0.0          -          -          -
  applied globally :       0.14          -          -          0      16645       30.6          -          -          0          -          -
  applied locally  :          -          -          -          0          0        0.0          -          -          0          -          -
Separators         :   ExecTime  SetupTime      Calls  RootCalls    Cutoffs    DomReds  FoundCuts ViaPoolAdd  DirectAdd    Applied ViaPoolApp  DirectApp      Conss
  cut pool         :       2.73          -      14227        162          -          -      18941     560049          -          -          -          -          -    (maximal pool size:       1358)
  aggregation      :      12.41       0.00       5028        129          0          0         53        781          0        166        166          0          0
  > cmir           :          -          -          -          -          -          -          -        781          0        166        166          0          -
  > flowcover      :          -          -          -          -          -          -          -          0          0          0          0          0          -
  > knapsackcover  :          -          -          -          -          -          -          -          0          0          0          0          0          -
  cgmip            :       0.00       0.00          0          0          0          0          0          0          0          0          0          0          0
  clique           :       0.00       0.00        129        129          0          0          0          0          0          0          0          0          0
  closecuts        :       0.00       0.00          0          0          0          0          0          0          0          0          0          0          0
  convexproj       :       0.00       0.00          0          0          0          0          0          0          0          0          0          0          0
  disjunctive      :       0.00       0.00          0          0          0          0          0          0          0          0          0          0          0
  eccuts           :       0.00       0.00          0          0          0          0          0          0          0          0          0          0          0
  gauge            :       0.00       0.00          0          0          0          0          0          0          0          0          0          0          0
  gomory           :       0.00       0.00          0          0          0          0          0          0          0          0          0          0          0
  > gomorymi       :          -          -          -          -          -          -          -          0          0          0          0          0          -
  > strongcg       :          -          -          -          -          -          -          -          0          0          0          0          0          -
  impliedbounds    :       0.15       0.00       5028        129          0          0         36          0          0          0          0          0          0
  interlattice     :       0.24       0.00         87         87          0          0         87          0         87         86          0         86          0
  interminor       :       0.00       0.00          0          0          0          0          0          0          0          0          0          0          0
  intersub         :       0.00       0.00          0          0          0          0          0          0          0          0          0          0          0
  intobj           :       0.00       0.00          0          0          0          0          0          0          0          0          0          0          0
  mcf              :       0.00       0.00          1          1          0          0          0          0          0          0          0          0          0
  minor            :       0.01       0.00          0          0          0          0          0          0          0          0          0          0          0
  mixing           :       0.00       0.00       5028        129          0          0          0          0          0          0          0          0          0
  oddcycle         :       0.00       0.00          0          0          0          0          0          0          0          0          0          0          0
  rapidlearning    :       0.02       0.00          0          0          0          0          0          0          0          0          0          0          0
  rlt              :       0.00       0.00         10         10          0          0          0          0          0          0          0          0          0
  zerohalf         :      29.55       0.00       3789         20          0          0      18852     559268          0      65586      65586          0          0
Cutselectors       :   ExecTime  SetupTime      Calls  RootCalls   Selected     Forced   Filtered  RootSelec   RootForc   RootFilt 
  hybrid           :       0.30       0.00       9687        129      68736          0     495146        272          0         29
Pricers            :   ExecTime  SetupTime      Calls       Vars
  problem variables:       0.00          -          0          0
Branching Rules    :   ExecTime  SetupTime   BranchLP  BranchExt   BranchPS    Cutoffs    DomReds       Cuts      Conss   Children
  allfullstrong    :       0.00       0.00          0          0          0          0          0          0          0          0
  cloud            :       0.00       0.00          0          0          0          0          0          0          0          0
  distribution     :       0.00       0.00          0          0          0          0          0          0          0          0
  fullstrong       :       0.00       0.00          0          0          0          0          0          0          0          0
  inference        :       0.00       0.00          0          0          0          0          0          0          0          0
  leastinf         :       0.00       0.00          0          0          0          0          0          0          0          0
  lookahead        :       0.00       0.00          0          0          0          0          0          0          0          0
  mostinf          :       0.00       0.00          0          0          0          0          0          0          0          0
  multaggr         :       0.00       0.00          0          0          0          0          0          0          0          0
  nodereopt        :       0.00       0.00          0          0          0          0          0          0          0          0
  pscost           :       0.00       0.00          0          0          0          0          0          0          0          0
  random           :       0.00       0.00          0          0          0          0          0          0          0          0
  relpscost        :      65.55       0.00      67853          0          0          0      11644          0       5172     129462
  vanillafullstrong:       0.00       0.00          0          0          0          0          0          0          0          0
Primal Heuristics  :   ExecTime  SetupTime      Calls      Found       Best
  LP solutions     :       0.01          -          -          5          5
  relax solutions  :       0.00          -          -          0          0
  pseudo solutions :       0.00          -          -          0          0
  strong branching :       0.03          -          -          1          1
  actconsdiving    :       0.00       0.00          0          0          0
  adaptivediving   :       2.84       0.00        101          0          0
  alns             :       2.56       0.00         26          5          4
  bound            :       0.00       0.00          0          0          0
  clique           :       0.00       0.00          1          0          0
  coefdiving       :       0.00       0.00          0          0          0
  completesol      :       0.00       0.00          0          0          0
  conflictdiving   :       4.89       0.00        269          0          0
  crossover        :       0.05       0.00          2          1          1
  dins             :       0.00       0.00          0          0          0
  distributiondivin:      16.32       0.00        270          0          0
  dps              :       0.00       0.00          0          0          0
  dualval          :       0.00       0.00          0          0          0
  farkasdiving     :       0.00       0.00          0          0          0
  feaspump         :       0.01       0.00          0          0          0
  fixandinfer      :       0.00       0.00          0          0          0
  fracdiving       :       8.24       0.00        270          0          0
  gins             :       0.04       0.00          0          0          0
  guideddiving     :       7.89       0.00        270          2          2
  indicator        :       0.11       0.00          0          0          0
  indicatordiving  :       0.00       0.00          0          0          0
  intdiving        :       0.00       0.00          0          0          0
  intshifting      :       0.04       0.00          9          0          0
  linesearchdiving :       8.09       0.00        270          0          0
  localbranching   :       0.00       0.00          0          0          0
  locks            :       0.01       0.00          1          0          0
  lpface           :       0.10       0.00          0          0          0
  mpec             :       1.42       0.00          1          0          0
  multistart       :       0.00       0.00          0          0          0
  mutation         :       0.00       0.00          0          0          0
  nlpdiving        :       3.90       0.00          9          0          0
  objpscostdiving  :       8.98       0.00         35          5          1
  octane           :       0.00       0.00          0          0          0
  ofins            :       0.10       0.00          0          0          0
  oneopt           :       0.05       0.00         26          0          0
  padm             :       0.00       0.00          0          0          0
  proximity        :       0.00       0.00          0          0          0
  pscostdiving     :       9.17       0.00        270          3          3
  randrounding     :       0.40       0.00       4496          0          0
  rens             :       0.00       0.00          0          0          0
  reoptsols        :       0.00       0.00          0          0          0
  repair           :       0.00       0.00          0          0          0
  rins             :       3.41       0.00         11          3          2
  rootsoldiving    :       2.84       0.00         10          0          0
  rounding         :       0.66       0.00       3788          0          0
  shiftandpropagate:       0.00       0.00          0          0          0
  shifting         :      16.98       0.00       8002         10          6
  simplerounding   :       0.07       0.00          0          0          0
  subnlp           :      68.14       0.00          0          0          0
  trivial          :       0.00       0.00          2          2          2
  trivialnegation  :       0.00       0.00          0          0          0
  trustregion      :       0.00       0.00          0          0          0
  trysol           :       0.11       0.00          0          0          0
  twoopt           :       0.00       0.00          0          0          0
  undercover       :       0.99       0.00          1          1          1
  vbounds          :       0.00       0.00          0          0          0
  veclendiving     :       4.73       0.00        270          0          0
  zeroobj          :       0.00       0.00          0          0          0
  zirounding       :       0.36       0.00       1000          0          0
  other solutions  :          -          -          -          0          -
Diving (single)    :      Calls      Nodes   LP Iters Backtracks  Conflicts   MinDepth   MaxDepth   AvgDepth  RoundSols  NLeafSols  MinSolDpt  MaxSolDpt  AvgSolDpt
  actconsdiving    :          0          -          -          -          -          -          -          -          -          -          -          -          -
  coefdiving       :          0          -          -          -          -          -          -          -          -          -          -          -          -
  conflictdiving   :        269       5050      40631        282       4319         19         43       32.2          0          -          -          -          -
  distributiondivin:        270       3323     101520        446       3522         20         36       25.1          0          -          -          -          -
  farkasdiving     :          0          -          -          -          -          -          -          -          -          -          -          -          -
  fracdiving       :        270      28017      76438        205       1527         30        221      117.3          0          -          -          -          -
  guideddiving     :        270      25835      72211        171       1565         25        174      109.6          0          2         55         56       55.5
  indicatordiving  :          0          -          -          -          -          -          -          -          -          -          -          -          -
  linesearchdiving :        270       6484      81234        348       5054         23         60       37.0          0          -          -          -          -
  pscostdiving     :        270       4617      93644        277       4373         21         42       30.6          0          3         38         41       39.7
  veclendiving     :        270       5007      35605        275       4797         18         42       31.9          0          -          -          -          -
Diving (adaptive)  :      Calls      Nodes   LP Iters Backtracks  Conflicts   MinDepth   MaxDepth   AvgDepth  RoundSols  NLeafSols  MinSolDpt  MaxSolDpt  AvgSolDpt
  actconsdiving    :         22        244       7846         46        352         22         31       24.3          0          -          -          -          -
  coefdiving       :         28        516       3355         29        478         21         43       32.1          0          -          -          -          -
  conflictdiving   :          0          -          -          -          -          -          -          -          -          -          -          -          -
  distributiondivin:          0          -          -          -          -          -          -          -          -          -          -          -          -
  farkasdiving     :          0          -          -          -          -          -          -          -          -          -          -          -          -
  fracdiving       :          9       1000       1321          9         63         36        155      125.9          0          -          -          -          -
  guideddiving     :          8        747       2011          5         30         77        153      107.1          0          -          -          -          -
  indicatordiving  :          0          -          -          -          -          -          -          -          -          -          -          -          -
  linesearchdiving :         11        263       2531         13        193         26         47       37.9          0          -          -          -          -
  pscostdiving     :         11        185       4481         12        197         24         39       29.6          0          -          -          -          -
  veclendiving     :         12        202       1237         13        188         19         35       30.1          0          -          -          -          -
Neighborhoods      :      Calls  SetupTime  SolveTime SolveNodes       Sols       Best       Exp3  EpsGreedy        UCB TgtFixRate  Opt  Inf Node Stal  Sol  Usr Othr Actv
  rens             :          2       0.01       0.01          0          0          0    0.00000   -1.00000    0.30135      0.700    0    1    0    0    0    0    1    1
  rins             :          2       0.07       0.01          1          0          0    0.00000   -1.00000    0.55014      0.550    0    2    0    0    0    0    0    1
  mutation         :          4       0.15       0.20         89          2          2    0.00000   -1.00000    0.53287      0.522    1    2    0    1    0    0    0    1
  localbranching   :          3       0.13       0.18         63          0          0    0.00000   -1.00000    0.46334      0.662    0    2    0    1    0    0    0    1
  crossover        :          3       0.11       0.03          2          0          0    0.00000   -1.00000    0.53978      0.437    0    3    0    0    0    0    0    1
  proximity        :          5       0.26       0.64        120          2          1    0.00000   -1.00000    0.51666      0.641    1    2    0    2    0    0    0    1
  zeroobjective    :          5       0.25       0.31        115          1          1    0.00000   -1.00000    0.52115      0.515    1    3    0    1    0    0    0    1
  dins             :          2       0.02       0.00          0          0          0    0.00000   -1.00000    0.30135      0.700    0    1    0    0    0    0    1    1
  trustregion      :          0       0.00       0.00          0          0          0    0.00000   -1.00000    1.00000      0.900    0    0    0    0    0    0    0    0
Expressions        :   #IntEval  IntEvalTi   #RevProp  RevPropTi    DomReds    Cutoffs  #Estimate  EstimTime  Branching  #Simplify SimplifyTi Simplified
  pow              :          0       0.00          0       0.00          0          0          0       0.00          0          0       0.00          0
  prod             :       3540       0.01          0       0.00          0          0          0       0.00          0       2655       0.00          0
  sum              :          8       0.00          2       0.01          0          0          0       0.00          0          3       0.01          2
  var              :       3327       0.00          0       0.00          0          0          0       0.00          0       6378       0.00          0
  varidx           :          0       0.00          0       0.00          0          0          0       0.00          0          0       0.00          0
LP                 :       Time      Calls Iterations  Iter/call   Iter/sec  Time-0-It Calls-0-It    ItLimit
  primal LP        :     158.07      12791          0       0.00       0.00     157.99      12791
  dual LP          :    2978.15     161874   21522581     154.35    7226.83       7.09      22432
  lex dual LP      :       0.00          0          0       0.00          -
  barrier LP       :       0.00          0          0       0.00          -       0.00          0
  resolve instable :       0.00          0          0       0.00          -
  diving/probing LP:      53.48       5668     634224     111.90   11859.09
  strong branching :      42.61       5665     499214      88.12   11715.89          -          -        108
    (at root node) :          -         19       4936     259.79          -
  conflict analysis:       7.71       5361      53321       9.95    6915.82
NLP relaxation     :
  solve time       :       3.89 (9 calls)
  convexity        :  nonconvex (1 linear rows, 0 convex ineq., 0 nonconvex ineq., 885 nonlinear eq. or two-sided ineq.)
NLP Solvers        :  #Problems  ProblemTi    #Solves  SolveTime      #Iter  Time/Iter      #Okay #TimeLimit #IterLimit #LObjLimit #Interrupt  #NumError #EvalError  #OutOfMem #LicenseEr #OtherTerm   #GlobOpt    #LocOpt  #Feasible #LocInfeas #GlobInfea #Unbounded   #Unknown
  ipopt            :          2       4.53         12       5.36        342       0.02         12          0          0          0          0          0          0          0          0          0          0          0          0          3          0          0          9
B&B Tree           :
  number of runs   :          1
  nodes            :     126806 (64731 internal, 62075 leaves)
  feasible leaves  :          5
  infeas. leaves   :        174
  objective leaves :      61895
  nodes (total)    :     126806 (64731 internal, 62075 leaves)
  nodes left       :       2630
  max depth        :         30
  max depth (total):         30
  backtracks       :      33331 (26.3%)
  early backtracks :          0 (0.0%)
  nodes exc. ref.  :          0 (0.0%)
  delayed cutoffs  :          8
  repropagations   :        873 (534 domain reductions, 2 cutoffs)
  avg switch length:       4.30
  switching time   :     183.23
Estim. Tree Size   :     258306
Estimation Tree    : 129463 nodes (126833 visited, 64731 internal, 62102 leaves, 2630 open), weight: 0.4708 completed 0.6821
Estimations        :      estim      value      trend resolution     smooth
  wbe              :     263826          -          -          -          -
  tree-profile     :         -1          -          -          -          -
  gap              :     351010    0.94215    0.00003         64     359547
  tree-weight      :     258306    0.47078    0.00050         64     254870
  leaf-frequency   :     690727    0.48963    0.00000         64     596216
  ssg              :     247826    0.19550   -0.00020         64     247337
  open-nodes       :     364518 2630.00000   -1.40057         64     338396
Root Node          :
  First LP value   : -1.00000000000000e+00
  First LP Iters   :        610 (20333.33 Iter/sec)
  First LP Time    :       0.03
  Final Dual Bound : -8.86440677966102e-01
  Final Root Iters :       2748
  Root LP Estimate : -5.42490938140915e-01
Solution           :
  Solutions found  :         38 (28 improvements)
  First Solution   : +1.00000000000000e+05   (in run 1, after 0 nodes, 0.00 seconds, depth 0, found by <trivial>)
  Gap First Sol.   :   infinite
  Gap Last Sol.    :      18.44 %
  Primal Bound     : -6.04519774011300e-01   (in run 1, after 33821 nodes, 769.70 seconds, depth 23, found by <relaxation>)
  Dual Bound       : -6.41638418079097e-01
  Gap              :       6.14 %
Integrals          :      Total       Avg%
  primal-dual      :   40756.10      11.32
  primal-ref       :          -          - (not evaluated)
  dual-ref         :          -          - (not evaluated)
